SDVRP instances/custom_instances/p03_4_splitx10_0.vrp
NAME:p03_4_splitx10_
BEST_KNOWN: 0
COMMENT: 0
DIMENSION: 457
CAPACITY: 2000
EDGE_WEIGHT_FORMAT: FUNCTION
EDGE_WEIGHT_TYPE: EXACT_2D
NODE_COORD_SECTION
1 0.00000 0.00000
2 -29 -37
3 -29 -37
4 -29 -37
5 6 33
6 6 33
7 6 33
8 6 33
9 6 33
10 6 33
11 6 33
12 32 44
13 32 44
14 32 44
15 32 44
16 32 44
17 32 44
18 42 19
19 42 19
20 42 19
21 42 19
22 42 19
23 -48 18
24 -48 18
25 -48 18
26 -48 18
27 -39 37
28 -39 37
29 -39 37
30 -33 41
31 -33 41
32 -33 41
33 -33 41
34 -33 41
35 -33 41
36 -33 41
37 -21 21
38 -21 21
39 -40 5
40 -40 5
41 -40 5
42 -40 5
43 -40 5
44 -40 5
45 -40 5
46 -7 -11
47 -7 -11
48 -7 -11
49 -7 -11
50 -7 -11
51 -14 -8
52 -14 -8
53 -14 -8
54 -14 -8
55 -14 -8
56 -14 -8
57 -14 -8
58 31 23
59 31 23
60 31 23
61 31 23
62 31 23
63 31 23
64 -32 21
65 -32 21
66 -32 21
67 -32 21
68 -32 21
69 -32 21
70 -10 -6
71 -10 -6
72 -10 -6
73 -10 -6
74 5 -5
75 5 -5
76 5 -5
77 5 -5
78 5 -5
79 5 -5
80 -13 19
81 -13 19
82 -13 19
83 19 -21
84 19 -21
85 19 -21
86 19 -21
87 19 -21
88 19 -21
89 20 44
90 20 44
91 41 47
92 41 47
93 41 47
94 27 -39
95 27 -39
96 27 -39
97 27 -39
98 27 -39
99 27 -39
100 27 -39
101 20 -24
102 20 -24
103 34 4
104 34 4
105 34 4
106 34 4
107 34 4
108 -29 -18
109 -29 -18
110 -29 -18
111 -29 -18
112 1 -18
113 1 -18
114 1 -18
115 18 -13
116 18 -13
117 18 -13
118 18 -13
119 -19 -6
120 -19 -6
121 -19 -6
122 -19 -6
123 -19 -6
124 -44 -20
125 -44 -20
126 -44 -20
127 -44 -20
128 -44 -20
129 -44 -20
130 26 23
131 26 23
132 26 23
133 26 23
134 26 23
135 26 23
136 26 23
137 34 0
138 34 0
139 34 0
140 34 0
141 29 -13
142 29 -13
143 29 -13
144 29 -13
145 37 -50
146 37 -50
147 37 -50
148 37 -50
149 -43 18
150 -43 18
151 -43 18
152 -43 18
153 1 7
154 1 7
155 1 7
156 -45 37
157 -45 37
158 -45 37
159 -45 37
160 -47 5
161 -47 5
162 -47 5
163 36 44
164 36 44
165 36 44
166 36 44
167 36 44
168 -33 -14
169 -33 -14
170 -33 -14
171 -33 -14
172 -33 -14
173 -33 -14
174 17 -48
175 17 -48
176 17 -48
177 17 -48
178 17 -48
179 -45 -29
180 -45 -29
181 -45 -29
182 13 41
183 13 41
184 13 41
185 13 41
186 29 43
187 29 43
188 -34 -36
189 -34 -36
190 -34 -36
191 14 23
192 14 23
193 14 23
194 14 23
195 14 23
196 14 23
197 -32 -15
198 -32 -15
199 -32 -15
200 -32 -15
201 -32 -15
202 -32 -15
203 0 -6
204 0 -6
205 0 -6
206 0 -6
207 0 -43
208 0 -43
209 0 -43
210 0 -43
211 -3 -27
212 -3 -27
213 -3 -27
214 -3 -27
215 -3 -27
216 -3 -27
217 49 39
218 49 39
219 49 39
220 49 39
221 49 39
222 9 -29
223 9 -29
224 9 -29
225 9 -29
226 -45 -8
227 -45 -8
228 -45 -8
229 12 -42
230 12 -42
231 12 -42
232 12 -42
233 12 -42
234 0 -15
235 0 -15
236 0 -15
237 0 -15
238 0 -15
239 0 -15
240 10 43
241 10 43
242 10 43
243 48 12
244 48 12
245 48 12
246 5 12
247 5 12
248 5 12
249 5 12
250 35 -14
251 35 -14
252 35 -14
253 35 -14
254 35 -14
255 35 -14
256 -40 -25
257 -40 -25
258 -41 5
259 -41 5
260 -41 5
261 -41 5
262 34 -18
263 34 -18
264 34 -18
265 34 -18
266 34 -18
267 34 -18
268 34 -18
269 26 9
270 26 9
271 26 9
272 26 9
273 26 9
274 26 9
275 26 9
276 -26 38
277 -26 38
278 -26 38
279 -26 38
280 -26 38
281 -26 38
282 -7 25
283 -7 25
284 -7 25
285 -50 10
286 -50 10
287 -50 10
288 -50 10
289 -45 -50
290 -45 -50
291 -45 -50
292 -45 -50
293 -50 21
294 -50 21
295 -50 21
296 -50 21
297 -25 14
298 -25 14
299 -25 14
300 7 39
301 7 39
302 7 39
303 7 39
304 7 39
305 -22 -7
306 -22 -7
307 -22 -7
308 2 40
309 2 40
310 2 40
311 24 -44
312 24 -44
313 25 3
314 25 3
315 25 3
316 25 3
317 25 3
318 -46 22
319 -46 22
320 -46 22
321 -46 22
322 -46 22
323 -43 -16
324 -43 -16
325 -43 -16
326 -43 -16
327 -43 -16
328 -43 -16
329 -43 -16
330 -49 48
331 -49 48
332 -49 48
333 -49 48
334 -49 48
335 -49 48
336 39 -43
337 39 -43
338 39 -43
339 39 -43
340 39 -43
341 30 -28
342 30 -28
343 30 -28
344 -23 -47
345 -23 -47
346 -23 -47
347 -23 -47
348 -23 -47
349 -34 -24
350 -34 -24
351 2 -47
352 2 -47
353 2 -47
354 2 -47
355 2 -47
356 -26 11
357 -26 11
358 -26 11
359 -26 11
360 -26 11
361 -26 11
362 12 30
363 12 30
364 12 30
365 12 30
366 12 30
367 12 30
368 -31 -12
369 -31 -12
370 -31 -12
371 -31 -12
372 -31 -12
373 -16 -37
374 -16 -37
375 -16 -37
376 -16 -37
377 -16 -37
378 -16 -37
379 10 -5
380 10 -5
381 10 -5
382 10 -5
383 10 -5
384 10 -5
385 10 -5
386 -3 1
387 -3 1
388 -3 1
389 -3 1
390 -3 1
391 -21 -30
392 -21 -30
393 -21 -30
394 -21 -30
395 24 0
396 24 0
397 -45 47
398 -45 47
399 -45 47
400 -45 47
401 -18 -24
402 -18 -24
403 -18 -24
404 -18 -24
405 47 -24
406 47 -24
407 47 -24
408 47 -24
409 43 -9
410 43 -9
411 43 -9
412 43 -9
413 43 -9
414 43 -9
415 43 -9
416 43 -9
417 31 -33
418 31 -33
419 31 -33
420 31 -33
421 -37 -2
422 -37 -2
423 -37 -2
424 -37 -2
425 -37 -2
426 -37 -2
427 12 17
428 12 17
429 19 39
430 19 39
431 19 39
432 19 39
433 19 39
434 19 39
435 19 39
436 -35 36
437 -35 36
438 -35 36
439 -35 36
440 -35 36
441 -35 36
442 -28 44
443 -28 44
444 40 33
445 40 33
446 40 33
447 40 33
448 40 33
449 40 33
450 -16 8
451 -16 8
452 -16 8
453 -16 8
454 -16 8
455 -16 8
456 31 10
457 31 10
DEMAND_SECTION
1 0
2 400
3 200
4 10
5 400
6 200
7 20
8 20
9 20
10 20
11 10
12 400
13 200
14 100
15 20
16 20
17 20
18 200
19 20
20 20
21 20
22 10
23 400
24 20
25 20
26 20
27 400
28 20
29 20
30 400
31 200
32 100
33 20
34 20
35 20
36 20
37 400
38 10
39 400
40 200
41 20
42 20
43 20
44 20
45 10
46 400
47 200
48 100
49 20
50 20
51 400
52 400
53 100
54 20
55 20
56 20
57 20
58 200
59 100
60 20
61 20
62 20
63 10
64 400
65 200
66 100
67 20
68 20
69 20
70 400
71 20
72 20
73 20
74 200
75 20
76 20
77 20
78 20
79 10
80 400
81 400
82 20
83 200
84 100
85 20
86 20
87 20
88 10
89 400
90 100
91 400
92 400
93 100
94 400
95 100
96 20
97 20
98 20
99 20
100 10
101 400
102 400
103 400
104 200
105 100
106 20
107 20
108 400
109 200
110 20
111 20
112 400
113 400
114 100
115 400
116 400
117 100
118 10
119 400
120 100
121 20
122 20
123 10
124 400
125 200
126 20
127 20
128 20
129 20
130 400
131 200
132 100
133 20
134 20
135 20
136 20
137 200
138 20
139 20
140 10
141 200
142 100
143 20
144 10
145 400
146 200
147 20
148 10
149 200
150 20
151 20
152 20
153 400
154 400
155 100
156 200
157 20
158 20
159 20
160 400
161 200
162 10
163 400
164 200
165 100
166 20
167 20
168 400
169 400
170 20
171 20
172 20
173 10
174 400
175 400
176 20
177 20
178 10
179 400
180 200
181 10
182 400
183 400
184 100
185 10
186 400
187 400
188 400
189 20
190 20
191 400
192 400
193 20
194 20
195 20
196 20
197 400
198 100
199 20
200 20
201 20
202 20
203 400
204 20
205 20
206 10
207 400
208 400
209 20
210 20
211 200
212 20
213 20
214 20
215 20
216 10
217 400
218 400
219 100
220 20
221 20
222 400
223 20
224 20
225 10
226 400
227 20
228 10
229 200
230 100
231 20
232 20
233 10
234 200
235 100
236 20
237 20
238 20
239 20
240 400
241 20
242 10
243 400
244 200
245 20
246 400
247 100
248 20
249 10
250 400
251 400
252 20
253 20
254 20
255 20
256 200
257 100
258 400
259 200
260 100
261 20
262 400
263 100
264 20
265 20
266 20
267 20
268 10
269 400
270 200
271 100
272 20
273 20
274 20
275 20
276 400
277 400
278 20
279 20
280 20
281 20
282 400
283 200
284 10
285 400
286 200
287 100
288 10
289 400
290 100
291 20
292 20
293 400
294 400
295 100
296 20
297 400
298 20
299 20
300 400
301 100
302 20
303 20
304 10
305 400
306 100
307 10
308 400
309 100
310 20
311 400
312 10
313 400
314 200
315 20
316 20
317 10
318 200
319 20
320 20
321 20
322 20
323 400
324 400
325 100
326 20
327 20
328 20
329 10
330 400
331 400
332 20
333 20
334 20
335 10
336 400
337 400
338 100
339 20
340 10
341 400
342 100
343 10
344 400
345 400
346 100
347 20
348 20
349 400
350 10
351 400
352 400
353 100
354 20
355 10
356 400
357 200
358 20
359 20
360 20
361 20
362 400
363 400
364 20
365 20
366 20
367 10
368 200
369 100
370 20
371 20
372 20
373 400
374 400
375 20
376 20
377 20
378 20
379 400
380 200
381 20
382 20
383 20
384 20
385 10
386 200
387 20
388 20
389 20
390 10
391 200
392 20
393 20
394 20
395 400
396 100
397 400
398 400
399 100
400 10
401 400
402 400
403 20
404 10
405 200
406 20
407 20
408 20
409 400
410 200
411 100
412 20
413 20
414 20
415 20
416 10
417 400
418 100
419 20
420 10
421 200
422 100
423 20
424 20
425 20
426 20
427 400
428 20
429 400
430 200
431 20
432 20
433 20
434 20
435 10
436 400
437 100
438 20
439 20
440 20
441 20
442 400
443 10
444 400
445 200
446 100
447 20
448 20
449 20
450 400
451 100
452 20
453 20
454 20
455 20
456 400
457 200
DEPOT_SECTION
1
-1
EOF