SDVRP instances/custom_instances/p03_4_splitx10_0.sol
456 -2 3 1 178 179 180 256 255 348 349 55 54 -4 5 10 9 301 299 240 239 241 307 308 309 -8 6 7 302 303 300 182 183 181 184 428 433 430 361 366 365 -15 14 16 13 12 92 91 90 162 165 163 164 166 -31 29 30 442 441 277 278 280 275 279 276 -34 32 33 35 396 398 399 397 331 334 333 332 329 330 436 437 37 -36 296 357 360 355 356 451 449 452 453 450 -44 287 284 285 286 159 160 161 227 225 226 367 -56 53 51 52 50 306 305 304 120 122 118 121 119 -62 59 61 57 219 216 217 220 218 447 445 446 444 443 448 132 134 -71 69 70 72 45 46 49 48 47 202 204 -75 78 73 74 100 101 253 251 250 249 254 252 143 384 383 382 -77 76 141 140 142 267 266 262 261 263 264 265 405 407 404 406 413 414 415 410 412 408 411 409 -79 80 81 283 281 282 245 248 247 246 -87 85 82 84 83 86 342 340 341 419 417 416 418 94 93 98 99 95 96 97 -107 109 108 110 198 199 197 196 167 168 -113 351 350 353 354 352 209 206 207 208 235 234 -117 114 115 116 112 111 238 237 233 236 205 203 -131 129 133 130 135 60 58 21 19 18 20 17 242 244 243 139 138 136 137 -152 154 153 -188 187 189 291 290 288 289 347 344 346 345 343 -193 195 11 185 186 88 89 431 434 432 429 -200 201 127 126 124 123 128 125 322 323 327 325 324 326 328 170 169 171 172 369 370 371 368 -211 213 214 212 215 210 232 228 230 229 231 174 177 176 175 173 224 222 221 223 -271 272 270 268 274 273 269 313 314 315 316 312 395 394 -310 311 144 146 145 147 335 336 339 338 337 -319 317 320 321 318 295 293 294 292 22 25 23 24 149 150 151 148 359 358 389 388 -363 364 362 192 190 191 194 427 426 -372 374 377 375 373 376 391 393 390 392 400 402 403 401 -380 381 379 378 104 105 102 103 106 455 456 -386 385 41 43 42 39 40 38 258 257 259 260 423 424 422 425 420 421 -387 454 297 298 64 63 67 66 68 65 155 156 158 157 28 26 27 438 435 439 440 0 





OBJ=
2994.466
BEST_KNOWN=
0.000